p cnf 14 64
6 11 14 0
4 -12 -13 0
8 -9 -13 0
-1 -3 -8 0
-7 -8 14 0
3 -9 -12 0
6 8 -10 0
-7 -8 -12 0
-6 -8 9 0
1 -7 -13 0
3 5 10 0
2 -8 10 0
8 -9 -11 0
-2 6 13 0
-4 -7 14 0
1 2 -13 0
-2 7 11 0
2 6 -11 0
-2 -12 -14 0
3 5 -9 0
6 -7 -11 0
2 -7 14 0
10 11 14 0
-1 6 11 0
3 6 12 0
-2 -3 6 0
1 -9 10 0
-9 -12 -13 0
11 -12 13 0
-1 -3 14 0
-1 -5 -7 0
-5 -6 -13 0
2 3 -12 0
3 -4 -14 0
12 13 -14 0
-1 8 14 0
3 7 -9 0
-3 -7 8 0
-3 8 -13 0
1 -5 -11 0
-5 -7 -12 0
2 -3 -14 0
4 9 -12 0
-12 13 -14 0
-2 -5 9 0
3 -5 -12 0
-4 -9 11 0
-2 7 14 0
2 7 12 0
5 -11 12 0
1 -11 13 0
-1 3 -12 0
10 12 -14 0
-2 -5 11 0
-1 5 -11 0
5 10 -11 0
-1 4 9 0
-1 -2 -14 0
-1 10 -13 0
2 12 -13 0
-5 9 12 0
3 -6 7 0
-2 6 -8 0
4 6 14 0
